SDVRP instances/custom_instances/p04_30_splitx10_0.vrp
NAME:p04_30_splitx10_
BEST_KNOWN: 0
COMMENT: 0
DIMENSION: 693
CAPACITY: 2000
EDGE_WEIGHT_FORMAT: FUNCTION
EDGE_WEIGHT_TYPE: EXACT_2D
NODE_COORD_SECTION
1 0.00000 0.00000
2 -9 -15
3 -9 -15
4 -9 -15
5 -9 -15
6 -9 -15
7 15 -45
8 15 -45
9 15 -45
10 15 -45
11 15 -45
12 15 -45
13 20 -11
14 20 -11
15 11 4
16 11 4
17 11 4
18 11 4
19 48 33
20 48 33
21 48 33
22 48 33
23 48 33
24 48 33
25 48 33
26 23 34
27 23 34
28 23 34
29 23 34
30 23 34
31 23 34
32 -16 8
33 -16 8
34 -16 8
35 -16 8
36 -16 8
37 -16 8
38 -16 8
39 11 -3
40 11 -3
41 11 -3
42 11 -3
43 11 -3
44 11 -3
45 11 -3
46 11 -3
47 24 -23
48 24 -23
49 24 -23
50 -2 -13
51 -2 -13
52 -2 -13
53 -7 -41
54 -7 -41
55 -7 -41
56 -7 -41
57 -7 -41
58 -7 -41
59 -7 13
60 -7 13
61 -7 13
62 -7 13
63 -7 13
64 -31 -19
65 -31 -19
66 -31 -19
67 50 -31
68 50 -31
69 50 -31
70 50 -31
71 50 -31
72 50 -31
73 50 -31
74 50 -31
75 -23 30
76 -23 30
77 -23 30
78 -23 30
79 -23 30
80 -23 30
81 -36 -47
82 -36 -47
83 -36 -47
84 -36 -47
85 -36 -47
86 -36 -47
87 -36 -47
88 -36 -47
89 -20 26
90 -20 26
91 28 17
92 28 17
93 28 17
94 28 17
95 28 17
96 -36 -2
97 -36 -2
98 -13 -25
99 -13 -25
100 -13 -25
101 -46 4
102 -46 4
103 7 7
104 7 7
105 7 7
106 7 7
107 7 7
108 -23 -15
109 -23 -15
110 -23 -15
111 -23 -15
112 -23 -15
113 -23 -15
114 -23 -15
115 -42 2
116 -42 2
117 -42 2
118 -42 2
119 6 1
120 6 1
121 6 1
122 6 1
123 6 1
124 -38 -28
125 -38 -28
126 -38 -28
127 -38 -28
128 -38 -28
129 -38 -28
130 -38 -28
131 32 -41
132 32 -41
133 32 -41
134 32 -41
135 50 14
136 50 14
137 50 14
138 50 14
139 50 14
140 50 14
141 50 14
142 27 43
143 27 43
144 27 43
145 27 43
146 27 43
147 -16 10
148 -16 10
149 -16 10
150 -16 10
151 -16 10
152 15 2
153 15 2
154 15 2
155 15 2
156 15 2
157 -49 26
158 -49 26
159 -49 26
160 11 0
161 11 0
162 11 0
163 -31 -20
164 -31 -20
165 -31 -20
166 -31 -20
167 -31 -20
168 -14 23
169 -14 23
170 -14 23
171 -14 23
172 -14 23
173 -14 23
174 -14 23
175 -14 23
176 43 10
177 43 10
178 49 12
179 49 12
180 49 12
181 -24 30
182 -24 30
183 -24 30
184 -32 -15
185 -32 -15
186 -32 -15
187 -32 -15
188 -32 -15
189 15 1
190 15 1
191 15 1
192 15 1
193 15 1
194 15 1
195 15 1
196 -27 44
197 -27 44
198 -6 -30
199 -6 -30
200 -6 -30
201 -6 -30
202 37 -50
203 37 -50
204 37 -50
205 -18 -21
206 -18 -21
207 -18 -21
208 -18 -21
209 -18 -21
210 -46 -28
211 -46 -28
212 -46 -28
213 -46 -28
214 -46 -28
215 -46 -28
216 -46 -28
217 13 -38
218 13 -38
219 13 -38
220 13 -38
221 13 -38
222 13 -38
223 13 -38
224 13 -38
225 1 -26
226 1 -26
227 1 -26
228 1 -26
229 1 -26
230 1 -26
231 1 -26
232 42 -37
233 42 -37
234 42 -37
235 42 -37
236 42 -37
237 42 -37
238 -14 -39
239 -14 -39
240 -14 -39
241 -14 -39
242 -14 -39
243 -14 -39
244 42 -20
245 42 -20
246 42 -20
247 42 -20
248 42 -20
249 42 -20
250 42 -20
251 8 -39
252 8 -39
253 8 -39
254 -3 3
255 -3 3
256 -3 3
257 -3 3
258 -3 3
259 3 -45
260 3 -45
261 3 -45
262 3 -45
263 3 -45
264 3 -45
265 3 -45
266 -27 -45
267 -27 -45
268 -27 -45
269 -27 -45
270 -27 -45
271 -26 37
272 -26 37
273 -26 37
274 -26 37
275 -30 -41
276 -30 -41
277 -30 -41
278 44 8
279 44 8
280 44 8
281 44 8
282 44 8
283 27 22
284 27 22
285 -21 -43
286 -21 -43
287 16 -8
288 16 -8
289 16 -8
290 16 -8
291 46 45
292 46 45
293 46 45
294 46 45
295 46 45
296 -3 -1
297 -3 -1
298 -3 -1
299 -6 20
300 -6 20
301 -6 20
302 -6 20
303 -6 50
304 -6 50
305 -6 50
306 -6 50
307 -7 21
308 -7 21
309 23 -22
310 23 -22
311 23 -22
312 23 -22
313 23 -22
314 23 -22
315 22 -7
316 22 -7
317 22 26
318 22 26
319 22 26
320 22 26
321 -29 24
322 -29 24
323 -29 24
324 -29 24
325 -29 24
326 -29 24
327 -15 -8
328 -15 -8
329 -15 -8
330 -15 -8
331 -15 -8
332 -15 -8
333 -15 -8
334 7 -42
335 7 -42
336 7 -42
337 7 -42
338 19 35
339 19 35
340 8 -41
341 8 -41
342 8 -41
343 8 -41
344 8 -41
345 8 -41
346 -7 -44
347 -7 -44
348 -7 -44
349 -7 -44
350 -7 -44
351 -7 -44
352 47 33
353 47 33
354 47 33
355 47 33
356 -18 -36
357 -18 -36
358 -18 -36
359 -18 -36
360 21 1
361 -26 -43
362 -26 -43
363 6 -31
364 6 -31
365 6 -31
366 47 -35
367 47 -35
368 47 -35
369 47 -35
370 47 -35
371 -23 36
372 -23 36
373 -23 36
374 -23 36
375 -23 36
376 -12 47
377 -12 47
378 -12 47
379 -12 47
380 -30 18
381 -30 18
382 -32 42
383 -32 42
384 -32 42
385 -32 42
386 -32 42
387 -36 -44
388 -36 -44
389 -36 -44
390 -36 -44
391 -5 -12
392 -5 -12
393 -5 -12
394 -5 -12
395 -29 47
396 -29 47
397 -29 47
398 -29 47
399 -29 47
400 29 39
401 29 39
402 29 39
403 18 -7
404 18 -7
405 18 -7
406 18 -7
407 18 -7
408 18 -7
409 -5 12
410 -5 12
411 -5 12
412 -5 12
413 -5 12
414 -5 12
415 26 50
416 26 50
417 26 50
418 -50 15
419 -50 15
420 -50 15
421 -50 15
422 -2 43
423 -2 43
424 -2 43
425 -2 43
426 -2 43
427 -2 43
428 -32 19
429 -32 19
430 -32 19
431 -32 19
432 -32 19
433 -32 19
434 -32 19
435 -48 21
436 -48 21
437 -48 21
438 23 15
439 23 15
440 34 35
441 34 35
442 11 -50
443 11 -50
444 11 -50
445 11 -50
446 11 -50
447 11 -50
448 29 12
449 29 12
450 29 12
451 7 46
452 7 46
453 7 46
454 7 46
455 -12 -33
456 -12 -33
457 -12 -33
458 -12 -33
459 -42 -17
460 -42 -17
461 -42 -17
462 -42 -17
463 -42 -17
464 -42 -17
465 -42 -17
466 33 -42
467 33 -42
468 33 -42
469 33 -42
470 33 -42
471 33 -42
472 33 -42
473 33 -42
474 41 6
475 41 6
476 41 6
477 35 -41
478 35 -41
479 35 -41
480 35 -41
481 35 -41
482 35 -41
483 30 1
484 30 1
485 30 1
486 -50 16
487 -50 16
488 -50 16
489 -50 16
490 -50 16
491 -50 16
492 -50 16
493 17 44
494 17 44
495 46 0
496 46 0
497 46 0
498 46 0
499 46 0
500 46 0
501 -18 7
502 -18 7
503 -18 7
504 -41 -41
505 -41 -41
506 -41 -41
507 -41 -41
508 -41 -41
509 -1 -6
510 -1 -6
511 -1 -6
512 -1 -6
513 -1 -6
514 -36 -48
515 -36 -48
516 -36 -48
517 -36 -48
518 12 34
519 12 34
520 12 34
521 -37 -8
522 -37 -8
523 -37 -8
524 -37 -8
525 20 -35
526 20 -35
527 20 -35
528 20 -35
529 -34 -3
530 -34 -3
531 -34 -3
532 -34 -3
533 -34 -3
534 -34 -3
535 -34 -3
536 49 -24
537 49 -24
538 49 -24
539 49 -24
540 49 -24
541 49 -24
542 26 -11
543 26 -11
544 26 -11
545 26 -11
546 26 -11
547 26 -11
548 26 -11
549 26 -11
550 21 -4
551 21 -4
552 21 -4
553 21 -4
554 -2 -12
555 -2 -12
556 -24 -4
557 -24 -4
558 -24 -4
559 -24 -4
560 -24 -4
561 -24 -4
562 -24 -4
563 -50 -25
564 -50 -25
565 -50 -25
566 -47 -31
567 -47 -31
568 -47 -31
569 -47 -31
570 -47 -31
571 -46 31
572 -46 31
573 -46 31
574 -46 31
575 49 41
576 49 41
577 49 41
578 49 41
579 49 41
580 49 41
581 -7 19
582 -7 19
583 -7 19
584 27 -15
585 27 -15
586 27 -15
587 27 -15
588 27 -15
589 14 -38
590 14 -38
591 14 -38
592 14 -38
593 -34 -35
594 -34 -35
595 -34 -35
596 -34 -35
597 -34 -35
598 -18 47
599 -18 47
600 -18 47
601 -18 47
602 3 13
603 3 13
604 3 13
605 3 13
606 3 13
607 3 13
608 -22 -25
609 -22 -25
610 -22 -25
611 -22 -25
612 -22 -25
613 21 13
614 21 13
615 -43 10
616 -43 10
617 -43 10
618 -43 10
619 13 -27
620 13 -27
621 13 -27
622 13 -27
623 13 -27
624 10 -24
625 10 -24
626 10 -24
627 10 -24
628 10 -24
629 -25 -17
630 -25 -17
631 -25 -17
632 -25 -17
633 -25 -17
634 -25 -17
635 -25 -17
636 -39 20
637 -39 20
638 -39 20
639 -39 20
640 -39 20
641 -39 20
642 17 30
643 17 30
644 17 30
645 17 30
646 17 30
647 17 30
648 -34 -36
649 -34 -36
650 -34 -36
651 -34 -36
652 -34 -36
653 -34 -36
654 -34 -36
655 -34 -36
656 -37 -47
657 -37 -47
658 -37 -47
659 -37 -47
660 28 -13
661 28 -13
662 28 -13
663 -3 8
664 -3 8
665 -45 39
666 -45 39
667 -45 39
668 -45 28
669 -45 28
670 -45 28
671 -45 28
672 -45 28
673 -45 28
674 -45 28
675 -45 28
676 -25 34
677 -25 34
678 -25 34
679 -15 15
680 -15 15
681 -15 15
682 -15 15
683 -15 15
684 -15 15
685 22 35
686 22 35
687 -34 -3
688 -34 -3
689 -34 -3
690 -34 -3
691 -34 -3
692 -34 -3
693 -34 -3
DEMAND_SECTION
1 0
2 400
3 400
4 100
5 20
6 20
7 400
8 400
9 100
10 20
11 20
12 20
13 400
14 200
15 400
16 100
17 20
18 20
19 400
20 400
21 100
22 20
23 20
24 20
25 20
26 400
27 200
28 20
29 20
30 20
31 20
32 200
33 100
34 20
35 20
36 20
37 20
38 10
39 400
40 200
41 100
42 20
43 20
44 20
45 20
46 10
47 400
48 20
49 10
50 400
51 400
52 200
53 200
54 100
55 20
56 20
57 20
58 20
59 200
60 20
61 20
62 20
63 10
64 400
65 20
66 10
67 400
68 200
69 100
70 20
71 20
72 20
73 20
74 10
75 400
76 400
77 100
78 20
79 20
80 20
81 400
82 400
83 100
84 20
85 20
86 20
87 20
88 10
89 400
90 10
91 400
92 100
93 20
94 20
95 10
96 400
97 20
98 400
99 200
100 20
101 400
102 200
103 400
104 200
105 100
106 20
107 20
108 400
109 400
110 100
111 20
112 20
113 20
114 10
115 200
116 20
117 20
118 10
119 200
120 20
121 20
122 20
123 10
124 400
125 100
126 20
127 20
128 20
129 20
130 10
131 400
132 20
133 20
134 10
135 400
136 400
137 100
138 20
139 20
140 20
141 20
142 200
143 20
144 20
145 20
146 20
147 200
148 100
149 20
150 20
151 10
152 400
153 400
154 100
155 20
156 10
157 200
158 100
159 10
160 200
161 100
162 20
163 400
164 200
165 20
166 20
167 10
168 400
169 400
170 100
171 20
172 20
173 20
174 20
175 10
176 400
177 100
178 400
179 400
180 100
181 400
182 200
183 10
184 400
185 200
186 100
187 20
188 20
189 400
190 400
191 100
192 20
193 20
194 20
195 20
196 400
197 400
198 400
199 400
200 100
201 10
202 400
203 100
204 20
205 200
206 100
207 20
208 20
209 20
210 400
211 400
212 100
213 20
214 20
215 20
216 10
217 400
218 200
219 100
220 20
221 20
222 20
223 20
224 10
225 400
226 400
227 20
228 20
229 20
230 20
231 10
232 400
233 400
234 100
235 20
236 20
237 20
238 200
239 100
240 20
241 20
242 20
243 20
244 400
245 200
246 100
247 20
248 20
249 20
250 10
251 400
252 100
253 10
254 400
255 200
256 20
257 20
258 20
259 400
260 400
261 20
262 20
263 20
264 20
265 10
266 200
267 100
268 20
269 20
270 10
271 400
272 100
273 20
274 10
275 400
276 20
277 10
278 400
279 200
280 100
281 20
282 20
283 400
284 200
285 400
286 20
287 400
288 20
289 20
290 20
291 200
292 20
293 20
294 20
295 10
296 400
297 400
298 100
299 400
300 100
301 20
302 10
303 400
304 20
305 20
306 10
307 200
308 100
309 400
310 200
311 100
312 20
313 20
314 20
315 400
316 20
317 400
318 400
319 100
320 20
321 400
322 400
323 20
324 20
325 20
326 10
327 200
328 100
329 20
330 20
331 20
332 20
333 10
334 400
335 200
336 100
337 20
338 400
339 100
340 400
341 200
342 100
343 20
344 20
345 20
346 400
347 100
348 20
349 20
350 20
351 10
352 400
353 20
354 20
355 10
356 400
357 200
358 100
359 20
360 400
361 400
362 20
363 400
364 400
365 20
366 200
367 100
368 20
369 20
370 10
371 400
372 20
373 20
374 20
375 10
376 400
377 400
378 100
379 10
380 200
381 100
382 200
383 100
384 20
385 20
386 20
387 400
388 200
389 20
390 20
391 200
392 20
393 20
394 20
395 200
396 100
397 20
398 20
399 10
400 400
401 200
402 20
403 400
404 200
405 100
406 20
407 20
408 20
409 200
410 20
411 20
412 20
413 20
414 10
415 200
416 100
417 20
418 400
419 20
420 20
421 10
422 400
423 200
424 100
425 20
426 20
427 10
428 400
429 400
430 20
431 20
432 20
433 20
434 10
435 400
436 200
437 20
438 400
439 400
440 400
441 100
442 400
443 200
444 20
445 20
446 20
447 10
448 400
449 400
450 10
451 400
452 200
453 20
454 20
455 400
456 400
457 100
458 10
459 400
460 200
461 20
462 20
463 20
464 20
465 10
466 400
467 200
468 100
469 20
470 20
471 20
472 20
473 10
474 400
475 100
476 20
477 200
478 100
479 20
480 20
481 20
482 20
483 400
484 100
485 10
486 400
487 200
488 100
489 20
490 20
491 20
492 10
493 400
494 20
495 200
496 100
497 20
498 20
499 20
500 20
501 400
502 400
503 200
504 200
505 100
506 20
507 20
508 10
509 400
510 100
511 20
512 20
513 10
514 400
515 200
516 100
517 20
518 400
519 20
520 10
521 400
522 200
523 100
524 20
525 200
526 100
527 20
528 10
529 200
530 100
531 20
532 20
533 20
534 20
535 10
536 400
537 20
538 20
539 20
540 20
541 10
542 400
543 200
544 100
545 20
546 20
547 20
548 20
549 10
550 200
551 100
552 20
553 20
554 400
555 400
556 400
557 400
558 20
559 20
560 20
561 20
562 10
563 400
564 400
565 200
566 400
567 400
568 100
569 20
570 20
571 400
572 400
573 100
574 20
575 400
576 200
577 100
578 20
579 20
580 20
581 400
582 400
583 20
584 400
585 200
586 100
587 20
588 10
589 200
590 100
591 20
592 10
593 400
594 400
595 20
596 20
597 20
598 400
599 400
600 20
601 10
602 400
603 400
604 20
605 20
606 20
607 20
608 400
609 20
610 20
611 20
612 20
613 400
614 400
615 200
616 100
617 20
618 20
619 400
620 200
621 20
622 20
623 10
624 200
625 20
626 20
627 20
628 20
629 400
630 400
631 100
632 20
633 20
634 20
635 10
636 400
637 200
638 20
639 20
640 20
641 20
642 400
643 200
644 100
645 20
646 20
647 10
648 400
649 400
650 100
651 20
652 20
653 20
654 20
655 10
656 400
657 20
658 20
659 10
660 400
661 200
662 100
663 400
664 10
665 400
666 400
667 200
668 400
669 200
670 100
671 20
672 20
673 20
674 20
675 10
676 400
677 100
678 20
679 400
680 200
681 20
682 20
683 20
684 10
685 400
686 20
687 400
688 400
689 20
690 20
691 20
692 20
693 10
DEPOT_SECTION
1
-1
EOF