SDVRP instances/custom_instances/p04_30_splitx10_0.sol
692 -5 4 3 1 2 97 99 98 393 390 -14 613 612 437 438 -16 15 17 449 447 448 484 483 482 359 161 160 -29 25 291 293 292 290 294 574 577 579 576 578 575 440 439 106 -41 42 43 315 314 548 547 542 541 544 545 543 546 661 659 660 -50 49 553 554 508 -61 59 62 581 580 582 306 301 300 299 298 662 -71 68 73 69 70 67 72 66 536 537 539 535 538 540 243 247 249 244 246 248 406 405 -83 82 84 85 86 514 516 515 513 656 657 387 388 389 386 595 593 -89 88 76 79 74 75 77 78 180 182 181 -90 283 282 317 319 316 318 -94 92 93 91 354 352 351 353 18 21 22 19 23 24 20 175 -95 96 690 528 686 531 530 692 689 556 557 560 558 555 561 559 -104 102 105 103 601 605 604 606 602 603 253 -110 111 162 165 166 164 163 65 64 63 187 185 186 184 183 327 329 328 -116 114 117 115 101 100 418 419 488 487 486 490 491 489 485 616 617 614 615 -122 120 119 121 118 38 44 39 45 40 295 297 296 -134 135 136 137 140 138 139 179 177 178 176 -151 154 155 153 152 191 192 188 194 193 189 190 -159 407 403 404 402 13 12 286 287 289 288 -199 52 55 56 54 53 57 262 259 261 263 264 260 258 333 336 334 -202 203 201 236 231 234 232 233 235 369 367 365 366 368 245 -204 205 207 129 128 126 127 124 123 125 568 569 565 566 567 633 634 630 632 -208 206 608 611 607 609 610 647 653 649 654 652 648 650 651 594 596 592 -210 212 215 209 211 214 213 562 564 563 -221 219 8 6 7 10 11 9 445 441 444 446 443 442 335 341 344 343 230 228 -226 227 224 229 225 198 197 200 51 511 512 509 -251 250 252 339 340 342 364 363 362 -255 257 256 254 148 147 149 146 150 31 32 37 35 34 36 33 502 500 501 -274 276 275 81 80 87 655 658 505 507 503 506 504 -312 313 311 309 310 308 48 47 46 585 587 584 586 583 -322 320 321 323 325 324 270 273 271 272 676 675 677 -331 330 326 332 107 112 109 108 113 628 629 631 -358 355 356 357 285 284 265 267 268 269 266 360 361 -370 371 372 373 374 195 196 395 394 397 398 396 383 385 381 384 382 -378 377 375 376 598 599 597 600 174 170 408 -379 380 670 668 672 674 671 667 669 156 157 158 434 435 436 -391 392 457 454 456 455 238 239 241 240 242 237 347 346 350 349 345 348 510 -409 410 411 412 413 60 58 168 169 173 167 172 171 683 680 681 679 678 682 -420 417 639 640 637 638 636 635 431 428 427 430 -433 429 432 673 573 570 572 571 666 665 664 -450 452 453 451 302 303 305 304 426 421 422 423 424 425 307 663 -462 461 458 459 460 464 463 523 520 522 521 529 687 688 532 534 533 691 -475 473 474 280 277 281 279 278 495 498 496 494 499 497 551 550 552 549 -476 478 479 480 481 477 466 465 470 469 471 468 472 467 132 130 131 133 524 527 525 526 621 -492 493 415 414 416 145 142 144 143 141 399 401 400 26 27 30 28 643 -517 519 518 338 337 684 685 645 646 644 642 641 -618 620 619 622 588 589 590 591 218 217 223 216 220 222 624 625 626 623 627 0 





OBJ=
4249.366
BEST_KNOWN=
0.000